(set-logic QF_SLIA)
(declare-fun var0 () String)
(declare-fun var1 () String)
(declare-fun var2 () String)
(declare-fun var3 () String)
(declare-fun var4 () String)
(declare-fun var5 () String)
(declare-fun var6 () String)
(declare-fun var7 () String)
(declare-fun var8 () String)
(declare-fun var9 () String)
(declare-fun var10 () String)
(declare-fun var11 () String)
(declare-fun var12 () String)
(declare-fun var13 () String)
(declare-fun var14 () String)
(declare-fun var15 () String)
(declare-fun var16 () String)
(declare-fun var17 () String)
(declare-fun var18 () String)
(declare-fun var19 () String)
(declare-fun var20 () Int)
(declare-fun var21 () Int)
(declare-fun var22 () Int)
(declare-fun var23 () Int)
(declare-fun var24 () Int)
(declare-fun var25 () Int)
(declare-fun var26 () Int)
(declare-fun var27 () Int)
(declare-fun var28 () Int)
(declare-fun var29 () Int)
(declare-fun var30 () Int)
(declare-fun var31 () Int)
(declare-fun var32 () Int)
(declare-fun var33 () Int)
(declare-fun var34 () Int)
(declare-fun var35 () Int)
(declare-fun var36 () Int)
(declare-fun var37 () Int)
(declare-fun var38 () Int)
(declare-fun var39 () Int)
(declare-fun var40 () Bool)
(declare-fun var41 () Bool)
(declare-fun var42 () Bool)
(declare-fun var43 () Bool)
(declare-fun var44 () Bool)
(declare-fun var45 () Bool)
(declare-fun var46 () Bool)
(declare-fun var47 () Bool)
(declare-fun var48 () Bool)
(declare-fun var49 () Bool)
(declare-fun var50 () Bool)
(declare-fun var51 () Bool)
(declare-fun var52 () Bool)
(declare-fun var53 () Bool)
(declare-fun var54 () Bool)
(declare-fun var55 () Bool)
(declare-fun var56 () Bool)
(declare-fun var57 () Bool)
(declare-fun var58 () Bool)
(declare-fun var59 () Bool)
(assert (< (str.indexof (str.replace var7 var18 var2) (str.replace var1 var16 var16) (str.len var12)) (str.len (str.at var19 var28))))
(assert (< (str.len var19) (str.indexof (str.substr "wnQ'11;7_%S~Y6/y(lTiqwO{]&PN__!WTwe08s??_b`]MBr}/RHeu>zk!%9BFv]?m5dWX~_e9i%Q]r`^l?fxPXuQJjipo\\3oa9^c" 0 var31) (str.replace var9 var18 var10) (str.len var11))))
(assert (<= (str.len var6) (str.indexof var19 var10 var39)))
(assert (str.prefixof var6 var1))
(assert (> var33 var27))
(assert (< (str.indexof var5 var14 var31) (str.len (str.at var11 var28))))
(assert (>= (str.indexof var5 var6 var36) (str.indexof var9 var6 var21)))
(assert (< (str.len var14) (str.indexof var10 var12 var26)))
(assert (str.contains var19 var11))
(assert (> (str.len var5) (str.len var2)))
(check-sat)
